
Gurobi 8.1.0 (mac64, Python) logging started Sat Mar 16 10:21:04 2019

Academic license - for non-commercial use only

Gurobi 8.1.0 (mac64, Python) logging started Sun Mar 17 19:34:14 2019

Academic license - for non-commercial use only

Gurobi 8.1.0 (mac64, Python) logging started Sun Mar 17 19:36:21 2019

Academic license - for non-commercial use only
